10	5
0	4	4	3	1	2
1	1	9
2	1	5
3	1	10
4	1	7
5	1	6
6	1	10
7	1	10
8	1	11
9	1	11
10	1	11
11	0
0	0	0	0	0	0	0
1	4	0	3	2	0	0
2	3	1	4	5	1	1
3	4	1	5	5	1	1
4	7	0	0	0	1	4
5	2	2	4	4	0	5
6	5	0	0	0	4	0
7	7	0	4	5	5	3
8	9	5	5	2	4	1
9	9	3	4	4	1	2
10	5	1	1	1	1	5
11	0	0	0	0	0	0
5	5	5	5	5
